NAME : explosion
TYPE : TSP
DIMENSION : 50
EDGE_WEIGHT_TYPE : EUC_2D
NODE_COORD_SECTION
1 231364 196770
2 549189 482361
3 901738 329655
4 353747 617572
5 32353 116015
6 76802 118214
7 93174 322978
8 663623 545389
9 591955 557833
10 893363 515814
11 746623 471388
12 33311 161610
13 199476 145758
14 783709 372580
15 198323 70079
16 388557 839013
17 127070 208117
18 91652 910509
19 10126 698659
20 923197 999912
21 307020 985708
22 446910 357325
23 941210 231176
24 180481 654102
25 903789 629953
26 804923 613273
27 171705 981270
28 350576 65395
29 71082 907300
30 919125 366010
31 375396 765421
32 110285 54305
33 462404 429317
34 650979 628574
35 975185 207207
36 191003 159850
37 761409 482786
38 961482 252331
39 962437 412600
40 346883 176589
41 83051 938844
42 145617 132436
43 210360 961791
44 188158 853644
45 809494 655894
46 448608 193836
47 432519 905303
48 318521 104112
49 931154 471071
50 938012 203645
EOF
